(declare-fun bvlambda_59_ ()Bool         )
(declare-fun a154 () (Array (_ BitVec 1) (_ BitVec 13)))
(assert
(let (($e19 (_ bv0 14)))
(let (($e20 (_ bv16382 14)))
(let (($e28 (_ bv0 11)))
(let (($e29 (_ bv722 14)))
(let (($e34 (_ bv472 13)))
(let (($e289                    bvlambda_59_ ))
(let (($e295 (ite        $e289  $e20  $e19)))
(let (($e296 (ite        $e289  $e20 $e29 )))
(let (($e297 (bvand (bvnot $e296) (bvnot $e295))))
(let (($e538 (concat $e28 true         )))
(let (($e539 (   extract      $e297)))
(let (($e540 (store a154 false $e34)))
(let (($e541 (select $e540 (not   $e539))))
(let (($e542 ((_ extract 11 0) $e541)))
                  (bvult $e542 $e538)
                                                                                                                                                                                                                                                                                                                                                                                                                                                                                                                                                                                                                                                                                                                                                                                                                                                                                                                                                                                                                                                                                                                                                                                                                                                                                                                                                                                                                                                                                                                                                                                                                                                                                                                                                                                                                                                                                                                                                                                                                                                                                                                                                                                                                                                                                                                                                                                                                        )))))                                                                                                                                                                                                                                                )))     )                                                                                                                                                                                             )    ))       ))                  )
